(declare-const delta_x Int)
(declare-const delta_tmp Int)
(declare-const delta_y Int)
(declare-const delta___cost Int)
(assert (exists
         ((|x'?1| Int) (|tmp'?2| Int) (phi___cost?3 Int) (phi_y?4 Int)
            (|S1,1?5| Real) (|y'?6| Int) (|S1,0?7| Real) (|__cost'?8| Int)
            (KSUM1?9 Int) (|K1,0?10| Int) (K?11 Int) (|y'?12| Int)
            (|__cost'?13| Int) (havoc?14 Int) (tmp?15 Int) (y?16 Int)
            (x?17 Int) (__cost?18 Int))
         (and (or (and (< (- x?17) 0) (<= (- __cost?18) 0)
                         (<= (+ (- __cost?18) -1) 0)
                         (or (< havoc?14 0) (< 0 havoc?14))
                         (= (+ (- phi___cost?3) __cost?18 1) 0)
                         (= (+ (- phi_y?4) y?16 1) 0))
                    (and (< (- x?17) 0) (<= (- __cost?18) 0)
                           (<= (+ (- __cost?18) -1) 0) (= havoc?14 0)
                           (<= (- K?11) 0) (<= (- |K1,0?10|) 0)
                           (= (+ |K1,0?10| (- K?11)) 0)
                           (<= (+ KSUM1?9 (- K?11)) 0)
                           (= (+ (- |S1,0?7|) |__cost'?8| (- |K1,0?10|)) 0)
                           (= (+ (- |S1,1?5|) |y'?6| |K1,0?10|) 0)
                           (= (+ (- KSUM1?9) |K1,0?10|) 0)
                           (= (+ |S1,0?7| (- __cost?18) -1) 0)
                           (= (+ |S1,1?5| (- y?16)) 0)
                           (or (and (= K?11 0) (= (+ (- |y'?6|) y?16) 0)
                                      (= (+ (- |__cost'?8|) __cost?18 1) 0))
                                 (and (<= (+ (- K?11) 1) 0)
                                        (<= (+ (- y?16) 1) 0)
                                        (<= (- __cost?18) 0)
                                        (<= (- |y'?6|) 0)
                                        (<= (+ (- |__cost'?8|) 2) 0)))
                           (= (+ |__cost'?8| (- K?11) (- __cost?18) -1) 0)
                           (= (+ |y'?6| K?11 (- y?16)) 0) (<= (- K?11) 0)
                           (< (- |__cost'?8|) 0) (<= |y'?6| 0)
                           (= (+ |__cost'?8| (- phi___cost?3)) 0)
                           (= (+ |y'?6| (- phi_y?4)) 0)))
                (= (+ |y'?12| (- phi_y?4)) 0) (= (+ |x'?1| (- x?17) 1) 0)
                (= (+ |tmp'?2| (- havoc?14)) 0)
                (= (+ |__cost'?13| (- phi___cost?3)) 0)
                (= delta___cost (+ |__cost'?13| (- __cost?18)))
                (= delta_tmp (+ |tmp'?2| (- tmp?15)))
                (= delta_x (+ |x'?1| (- x?17)))
                (= delta_y (+ |y'?12| (- y?16))))))
(check-sat)
